Minimize
 obj: - 10 y(0) + 9 y(3) - 8 y(5) + 4 y(7) - 7 y(9) - 4 y(10) - 8 y(11)
      + 10 y(14) - y(15) + 5 y(16) + 2 y(17) + 10 y(18) + 56 x(0) + 7 y(13)
      + 9 y(19) + 181 x(1) - 4 y(1) + 184 x(2) + 4 y(2) - 10 y(4) + y(6)
      + 114 x(3) - 5 y(8) - 6 y(12) - 25 x(4) + 9 x(5) + 55 x(6) + 128 x(7)
      - 120 x(8) + 94 x(9) + 69 x(10) - 156 x(11) - 14 x(12) + 165 x(13)
      - 117 x(14) - 154 x(15) - 140 x(16) + 124 x(17) - 17 x(18) + 149 x(19)
Subject To
 c1:  6 y(0) + 15 y(3) + 19 y(5) + 7 y(7) + 11 y(9) + 2 y(10) + 7 y(11)
      + 17 y(14) + 11 y(15) + 16 y(16) + 10 y(17) + 12 y(18) + 15 x(0) <= 56
 c2:  14 y(0) + 9 y(7) + 6 y(9) + 14 y(10) + 16 y(11) + 12 y(14) + 16 y(17)
      + 3 y(18) + 11 y(13) + 6 y(19) + 5 x(1) <= 100
 c3:  11 y(0) + 13 y(3) + 6 y(5) + 12 y(10) + 11 y(14) + 4 y(16) + 13 y(18)
      + 12 y(19) + 16 y(1) + 5 x(2) <= 62
 c4:  y(17) + 3 y(13) + 16 y(2) + 2 y(4) + 14 y(6) + 13 x(3) <= 95
 c5:  9 y(3) + 10 y(7) + 13 y(11) + 14 y(16) + 6 y(17) + y(13) + 13 y(19)
      - y(1) + 20 y(6) + 12 y(8) + 6 y(12) + 20 x(4) <= 58
 c6:  11 y(5) + 6 y(10) + 10 y(14) + 7 y(13) + 8 y(6) + 12 y(12) + 18 x(5)
      <= 54
 c7:  13 y(3) + 13 y(5) + 8 y(10) + 18 y(14) + 16 y(18) + 10 y(6) + 19 x(6)
      <= 100
 c8:  19 y(0) + 3 y(5) + 9 y(7) + 20 y(9) + 10 y(10) + y(11) + 16 y(17)
      + 11 y(13) + 19 y(1) + 20 y(4) + 8 y(8) + 19 y(12) + 8 x(7) <= 79
 c9:  7 y(7) + 14 y(10) + 9 y(18) + 18 y(19) + y(1) + 15 y(4) + 8 y(6)
      + 10 y(8) + 7 x(8) <= 57
 c10: 17 y(3) + 8 y(10) + y(15) + 15 y(16) + 8 y(17) + 13 y(19) + 16 y(12)
      + 19 x(9) <= 64
 c11: 10 y(9) + 19 y(10) + 9 y(15) + 9 y(16) + 17 y(17) + 9 y(13) + 11 y(19)
      + 11 y(4) + 12 y(8) + 10 x(10) <= 83
 c12: 20 y(0) + 16 y(7) + 16 y(15) + 20 y(16) + 5 y(17) + 12 y(13) + 4 y(19)
      + y(1) + 10 y(6) + 15 y(8) + 7 y(12) + 2 x(11) <= 87
 c13: - y(14) + 12 y(8) - x(12) <= 61
 c14: 16 y(3) + 15 y(7) + 13 y(11) + 20 y(14) + 5 y(16) + 6 y(17) - y(1)
      + 2 y(6) - y(8) + 2 x(13) <= 63
 c15: y(5) + 3 y(9) + 14 y(17) + 4 y(13) + 18 y(19) + 16 y(6) + 3 x(14) <= 91
 c16: 16 y(3) + 14 y(5) + 20 y(16) + 16 y(13) + 10 y(1) + 17 y(4) + 16 y(12)
      + 18 x(15) <= 69
 c17: 13 y(5) + 8 y(7) + 7 y(14) + 12 y(15) - y(13) + 15 y(6) + 10 x(16) <= 74
 c18: 19 y(10) + 7 y(11) + 20 y(14) + 16 y(16) + 11 y(1) + 11 y(2) + 6 y(8)
      + 14 y(12) + 18 x(17) <= 78
 c19: 15 y(0) + y(14) + 18 y(15) + y(18) + 8 y(19) + 11 y(1) + 12 y(4)
      + 4 y(12) + 5 x(18) <= 53
 c20: 12 y(3) + 4 y(15) + 14 y(13) + 15 y(1) + 11 y(6) + 12 y(8) + 3 x(19)
      <= 53
 c21: 10 y(3) + y(5) + 5 y(7) + y(9) - y(10) + 18 y(11) + 10 y(14) + 4 y(15)
      + 9 y(17) + 20 y(1) + 18 y(6) <= 60
 c22: - y(9) + 14 y(10) + 11 y(11) + 16 y(14) + 19 y(15) + 10 y(2) + 8 y(8)
      + 8 y(12) <= 68
 c23: y(0) + 19 y(5) + 19 y(7) + 15 y(9) + 4 y(16) + 11 y(17) + 8 y(1)
      + 20 y(2) + 20 y(8) <= 92
 c24: 10 y(0) + 4 y(5) + 13 y(9) + 17 y(11) + 10 y(15) + 9 y(17) + 19 y(4)
      <= 59
 c25: 15 y(0) + 9 y(5) - y(14) + 16 y(15) + 12 y(16) + 9 y(17) + 14 y(18)
      + 9 y(1) + 2 y(8) <= 74
 c26: 15 y(0) + 11 y(5) + 18 y(7) + 19 y(10) + 16 y(11) + 9 y(15) + 12 y(16)
      + 17 y(17) + 17 y(18) + 7 y(13) + 10 y(19) + 8 y(1) - y(4) + 10 y(8)
      <= 80
 c27: 11 y(0) + 4 y(3) + 15 y(9) + 7 y(11) + 17 y(14) + 3 y(15) + 9 y(16)
      + 20 y(13) + y(1) + 8 y(8) <= 50
 c28: 20 y(3) + 14 y(5) + 8 y(9) + 19 y(10) + 12 y(11) + 3 y(15) + 10 y(16)
      + 4 y(19) + 4 y(1) + y(6) <= 61
 c29: 2 y(3) + 4 y(5) + y(11) + 11 y(16) + 18 y(17) - y(18) + 17 y(13)
      + 13 y(19) + 14 y(8) + 14 y(12) <= 67
 c30: 20 y(3) + 19 y(5) + 20 y(7) + 8 y(17) + 20 y(18) + 13 y(1) + 8 y(6) <= 68
 c31: 11 y(0) + 9 y(3) + 7 y(5) + 16 y(7) + 3 y(9) + 11 y(10) + 7 y(14) - y(15)
      + 14 y(16) + 3 y(17) + 11 y(19) + 6 y(1) + 9 y(2) + 5 y(4) + 8 y(8)
      + 6 y(12) <= 79
 c32: 5 y(9) + 17 y(11) + 13 y(15) + 16 y(19) + 14 y(1) + 19 y(8) + 17 y(12)
      <= 98
 c33: y(3) + 15 y(7) + 14 y(9) + 16 y(14) + 15 y(4) + 9 y(6) <= 67
 c34: 6 y(3) - y(7) + 4 y(10) + 8 y(11) + 16 y(15) + 9 y(16) + y(17) + 19 y(18)
      + 5 y(19) + 9 y(1) + 14 y(4) + 20 y(8) <= 65
 c35: 6 y(0) + 14 y(7) + 17 y(9) + 15 y(14) + 3 y(15) + 8 y(16) + 6 y(18)
      + 4 y(13) + 12 y(2) + 10 y(8) + 11 y(12) <= 92
 c36: 5 y(7) + 6 y(9) + 6 y(14) + 19 y(15) + 10 y(19) + 8 y(6) + 10 y(8)
      + 3 y(12) <= 50
 c37: y(7) + y(9) + 6 y(10) + 3 y(11) + 16 y(16) + 19 y(19) + 11 y(1) - y(6)
      + 9 y(8) <= 95
 c38: 10 y(5) + 10 y(9) + 9 y(14) + 19 y(15) + y(18) + 9 y(13) + 5 y(1)
      + 11 y(2) + 20 y(6) + 16 y(8) <= 65
 c39: 15 y(7) + 13 y(9) + 14 y(11) + 15 y(16) + 3 y(17) + 2 y(18) <= 79
 c40: x(0) + x(1) + x(2) + x(3) + x(4) + x(5) + x(6) + x(7) + x(8) + x(9)
      + x(10) + x(11) + x(12) + x(13) + x(14) + x(15) + x(16) + x(17) + x(18)
      + x(19) <= 6
 c41: - y(0) - y(3) - 4 y(5) + 3 y(7) + 6 y(9) - 10 y(10) + 4 y(11) + 5 y(14)
      - 6 y(15) + 8 y(16) - 5 y(17) + 9 y(18) + 20 x(0) + 5 y(13) - 6 y(19)
      - 42 x(1) + 6 y(1) + 112 x(2) + 6 y(2) + 6 y(4) + y(6) - 173 x(3)
      + 4 y(8) - 8 y(12) + 31 x(4) - 13 x(5) + 174 x(6) - 168 x(7) + 109 x(8)
      - 86 x(9) - 25 x(10) - 35 x(11) - 179 x(12) - 115 x(13) - 122 x(14)
      - 76 x(15) + 95 x(16) + 61 x(17) - 148 x(18) + 176 x(19) = 0
Bounds
 0 <= x(0) <= 1
 0 <= x(1) <= 1
 0 <= x(2) <= 1
 0 <= x(3) <= 1
 0 <= x(4) <= 1
 0 <= x(5) <= 1
 0 <= x(6) <= 1
 0 <= x(7) <= 1
 0 <= x(8) <= 1
 0 <= x(9) <= 1
 0 <= x(10) <= 1
 0 <= x(11) <= 1
 0 <= x(12) <= 1
 0 <= x(13) <= 1
 0 <= x(14) <= 1
 0 <= x(15) <= 1
 0 <= x(16) <= 1
 0 <= x(17) <= 1
 0 <= x(18) <= 1
 0 <= x(19) <= 1
Binaries
 x(0)  x(1)  x(2)  x(3)  x(4)  x(5)  x(6)  x(7)  x(8)  x(9)  x(10)  x(11) 
 x(12)  x(13)  x(14)  x(15)  x(16)  x(17)  x(18)  x(19) 
End
